
Log started (V11.0.0) Tue Apr 15 18:40:24 2008

Tried aggregator 1 time.
Reduced MIP has 110 rows, 1001 columns, and 2010 nonzeros.
Presolve time =    0.00 sec.
Clique table members: 100.
MIP emphasis: balance optimality and feasibility.
MIP search method: dynamic search.
Parallel mode: none, using 1 thread.
Root relaxation solution time =    0.01 sec.

        Nodes                                         Cuts/
   Node  Left     Objective  IInf  Best Integer     Best Node    ItCnt     Gap

*     0+    0                         5352.0000      170.0328      222   96.82%
*     0+    0                          188.0000      170.0328      222    9.56%
      0     0      171.0000    20      188.0000     Fract: 10      241    9.04%
*     0+    0                          179.0000      171.0000      241    4.47%
      0     0      171.0000    20      179.0000     Covers: 2      251    4.47%
      0     0      171.0000    25      179.0000     Covers: 4      278    4.47%
*     0+    0                          178.0000      171.0000      278    3.93%
      0     2      171.0000    25      178.0000      171.0000      278    3.93%
    100    70      172.0000    20      178.0000      171.0000     3968    3.93%
    200   130      176.0000    13      178.0000      171.0000     6198    3.93%
    300   198      172.0000    21      178.0000      171.0000     7328    3.93%
    400   276      173.9519    18      178.0000      171.0000     8970    3.93%
*   491+  273                          176.0000      171.0000    11197    2.84%
*   491+  232                          175.0000      171.0000    11197    2.29%
    500   235      172.0000    18      175.0000      172.0000    12132    1.71%
    600   234      172.0000    25      175.0000      172.0000    14298    1.71%
*   613+  157                          174.0000      172.0000    14483    1.15%
    700   157      172.7745    50      174.0000      172.0000    16467    1.15%
    800   186      172.0000    58      174.0000      172.0000    20205    1.15%
    900   256      173.0000    40      174.0000      172.0000    24236    1.15%
   1000   323      173.0000    41      174.0000      172.0000    27794    1.15%
Elapsed time =   4.58 sec. (tree size =  0.12 MB, solutions = 7)
   1100   384      173.0000    42      174.0000      172.0000    33070    1.15%
   1200   447      173.0000    42      174.0000      172.0000    37777    1.15%
   1300   519      173.0000    61      174.0000      172.0000    42286    1.15%
   1400   555    infeasible            174.0000      173.0000    50359    0.57%
   1500   525    infeasible            174.0000      173.0000    65287    0.57%
   1600   561      173.0000    49      174.0000      173.0000    74607    0.57%
   1700   547      173.0000    44      174.0000      173.0000    89384    0.57%
   1800   577    infeasible            174.0000      173.0000    99058    0.57%
   1900   625      173.0000    38      174.0000      173.0000   106499    0.57%
   2000   669    infeasible            174.0000      173.0000   115974    0.57%
Elapsed time =  16.27 sec. (tree size =  0.26 MB, solutions = 7)
   2100   669    infeasible            174.0000      173.0000   129436    0.57%
   2200   679    infeasible            174.0000      173.0000   142197    0.57%
   2300   691      173.0000    64      174.0000      173.0000   154895    0.57%
   2400   705    infeasible            174.0000      173.0000   168331    0.57%
   2500   730    infeasible            174.0000      173.0000   178610    0.57%
   2600   765      173.0000    51      174.0000      173.0000   189397    0.57%
   2700   766      173.0000    45      174.0000      173.0000   201990    0.57%
   2800   782    infeasible            174.0000      173.0000   212865    0.57%
   2900   768      173.0000    72      174.0000      173.0000   229077    0.57%
   3000   800      173.0000    40      174.0000      173.0000   238544    0.57%
Elapsed time =  38.31 sec. (tree size =  0.32 MB, solutions = 7)
   3100   852    infeasible            174.0000      173.0000   246705    0.57%
*  3137     0      integral     0      173.0000      173.0000   251988    0.00%

Cover cuts applied:  523
Mixed integer rounding cuts applied:  10
Gomory fractional cuts applied:  7

Solution pool: 8 solutions saved.

MIP - Integer optimal solution:  Objective = 1.7300000000e+002
Solution time =   40.92 sec.  Iterations = 251988  Nodes = 3138


Incumbent solution
Variable Name           Solution Value
Cmax                        173.000000
X_1_2                         1.000000
X_2_5                         1.000000
X_3_4                         1.000000
X_4_5                         1.000000
X_5_8                         1.000000
X_6_8                         1.000000
X_7_7                         1.000000
X_8_2                         1.000000
X_9_9                         1.000000
X_10_1                        1.000000
X_11_8                        1.000000
X_12_3                        1.000000
X_13_1                        1.000000
X_14_4                        1.000000
X_15_7                        1.000000
X_16_10                       1.000000
X_17_7                        1.000000
X_18_2                        1.000000
X_19_2                        1.000000
X_20_5                        1.000000
X_21_3                        1.000000
X_22_10                       1.000000
X_23_4                        1.000000
X_24_6                        1.000000
X_25_9                        1.000000
X_26_1                        1.000000
X_27_4                        1.000000
X_28_1                        1.000000
X_29_8                        1.000000
X_30_10                       1.000000
X_31_3                        1.000000
X_32_9                        1.000000
X_33_10                       1.000000
X_34_5                        1.000000
X_35_7                        1.000000
X_36_3                        1.000000
X_37_3                        1.000000
X_38_9                        1.000000
X_39_4                        1.000000
X_40_10                       1.000000
X_41_1                        1.000000
X_42_8                        1.000000
X_43_5                        1.000000
X_44_9                        1.000000
X_45_7                        1.000000
X_46_5                        1.000000
X_47_5                        1.000000
X_48_8                        1.000000
X_49_10                       1.000000
X_50_5                        1.000000
X_51_7                        1.000000
X_52_7                        1.000000
X_53_5                        1.000000
X_54_9                        1.000000
X_55_3                        1.000000
X_56_1                        1.000000
X_57_4                        1.000000
X_58_9                        1.000000
X_59_4                        1.000000
X_60_8                        1.000000
X_61_6                        1.000000
X_62_7                        1.000000
X_63_6                        1.000000
X_64_2                        1.000000
X_65_2                        1.000000
X_66_10                       1.000000
X_67_6                        1.000000
X_68_6                        1.000000
X_69_4                        1.000000
X_70_6                        1.000000
X_71_8                        1.000000
X_72_9                        1.000000
X_73_3                        1.000000
X_74_3                        1.000000
X_75_10                       1.000000
X_76_2                        1.000000
X_77_6                        1.000000
X_78_3                        1.000000
X_79_8                        1.000000
X_80_3                        1.000000
X_81_3                        1.000000
X_82_7                        1.000000
X_83_4                        1.000000
X_84_2                        1.000000
X_85_1                        1.000000
X_86_4                        1.000000
X_87_6                        1.000000
X_88_6                        1.000000
X_89_10                       1.000000
X_90_8                        1.000000
X_91_1                        1.000000
X_92_8                        1.000000
X_93_7                        1.000000
X_94_10                       1.000000
X_95_9                        1.000000
X_96_4                        1.000000
X_97_1                        1.000000
X_98_7                        1.000000
X_99_6                        1.000000
X_100_5                       1.000000
All other variables in the range 1-1001 are 0.
